; benchmark generated from python API
(set-info :status unknown)
(declare-fun strlen_85_64 () (_ BitVec 64))
(declare-fun args_1_8 () (_ BitVec 8))
(declare-fun strlen_83_64 () (_ BitVec 64))
(declare-fun strncmp_ret_84_32 () (_ BitVec 32))
(declare-fun strncmp_ret_86_32 () (_ BitVec 32))
(declare-fun filesize_file_0_/proc/self/loginuid_88_64 () (_ BitVec 64))
(declare-fun syscall_stub_ioctl_94_32 () (_ BitVec 32))
(declare-fun syscall_stub_newfstatat_119_64 () (_ BitVec 64))
(declare-fun syscall_stub_ioctl_2141_32 () (_ BitVec 32))
(declare-fun syscall_stub_newfstatat_2984_64 () (_ BitVec 64))
(declare-fun syscall_stub_readlink_3209_64 () (_ BitVec 64))
(declare-fun strlen_4688_64 () (_ BitVec 64))
(declare-fun mem_7fffffffffef42d_3396_3576 () (_ BitVec 3576))
(declare-fun mem_7fffffffffef42c_3322_8 () (_ BitVec 8))
(declare-fun mem_7fffffffffef428_3312_32 () (_ BitVec 32))
(declare-fun mem_7fffffffffef420_3302_64 () (_ BitVec 64))
(declare-fun syscall_stub_newfstatat_3419_64 () (_ BitVec 64))
(declare-fun mem_7fffffffffef038_3573_64 () (_ BitVec 64))
(declare-fun mem_7fffffffffeefa8_3578_64 () (_ BitVec 64))
(declare-fun mem_7fffffffffeefa0_3607_64 () (_ BitVec 64))
(declare-fun mem_7fffffffffef030_3604_64 () (_ BitVec 64))
(declare-fun mem_7fffffffffef048_3666_32 () (_ BitVec 32))
(declare-fun mem_7fffffffffeefc8_3753_64 () (_ BitVec 64))
(declare-fun mem_7fffffffffef058_3742_64 () (_ BitVec 64))
(declare-fun access_7139_32 () (_ BitVec 32))
(assert
 (let ((?x751 (bvadd (_ bv576460752303357826 64) strlen_85_64)))
 (let (($x69 (= (_ bv0 8) args_1_8)))
 (let ((?x46 (ite $x69 (_ bv576460752303357826 64) (_ bv576460752303357827 64))))
 (= ?x46 ?x751)))))
(assert
 (let ((?x101 (bvadd (_ bv576460752303357826 64) strlen_83_64)))
 (let (($x69 (= (_ bv0 8) args_1_8)))
 (let ((?x46 (ite $x69 (_ bv576460752303357826 64) (_ bv576460752303357827 64))))
 (= ?x46 ?x101)))))
(assert
 (let (($x104 (bvule (_ bv2 64) strlen_83_64)))
 (let (($x48 (= (_ bv2 64) strlen_83_64)))
 (let (($x122 (or $x48 $x104)))
 (let (($x123 (not $x122)))
 (let (($x57 (= (_ bv45 8) args_1_8)))
 (let (($x121 (not $x57)))
 (or $x121 $x123))))))))
(assert
 (= (_ bv1 32) strncmp_ret_84_32))
(assert
 (= (_ bv1 32) strncmp_ret_86_32))
(assert
 true)
(assert
 (let ((?x1236 ((_ extract 3 0) filesize_file_0_/proc/self/loginuid_88_64)))
 (let (($x1210 (bvsge (_ bv0 64) filesize_file_0_/proc/self/loginuid_88_64)))
 (let ((?x99 (ite $x1210 (_ bv0 4) ?x1236)))
 (let (($x1110 (bvule ?x99 (_ bv12 4))))
 (let (($x119703 (not $x1110)))
 (let ((?x1214 ((_ extract 63 63) filesize_file_0_/proc/self/loginuid_88_64)))
 (let (($x116245 (= (_ bv1 1) ?x1214)))
 (let (($x119835 (not $x116245)))
 (let ((?x1229 ((_ extract 63 4) filesize_file_0_/proc/self/loginuid_88_64)))
 (let (($x523 (= (_ bv0 60) ?x1229)))
 (let (($x516 (or $x1210 $x523)))
 (let (($x119942 (not $x516)))
 (let (($x119586 (or $x119942 $x119835 $x1210 $x119703)))
 (let (($x116912 (not $x119586)))
 (let (($x116860 (= (_ bv0 64) filesize_file_0_/proc/self/loginuid_88_64)))
 (let (($x117248 (or $x116860 $x1210)))
 (let (($x119482 (not $x117248)))
 (let (($x47155 (or $x119942 $x119703 $x119482)))
 (let (($x118344 (not $x47155)))
 (or $x118344 $x116912)))))))))))))))))))))
(assert
 (let (($x1210 (bvsge (_ bv0 64) filesize_file_0_/proc/self/loginuid_88_64)))
 (let ((?x1217 (ite $x1210 (_ bv0 64) filesize_file_0_/proc/self/loginuid_88_64)))
 (let ((?x1236 ((_ extract 3 0) filesize_file_0_/proc/self/loginuid_88_64)))
 (let ((?x99 (ite $x1210 (_ bv0 4) ?x1236)))
 (let (($x1110 (bvule ?x99 (_ bv12 4))))
 (let ((?x1229 ((_ extract 63 4) filesize_file_0_/proc/self/loginuid_88_64)))
 (let (($x523 (= (_ bv0 60) ?x1229)))
 (let (($x516 (or $x1210 $x523)))
 (let (($x975 (and $x516 $x1110)))
 (let ((?x1169 (ite $x975 ?x1217 (_ bv12 64))))
 (bvule ?x1169 (_ bv18446744073709547520 64)))))))))))))
(assert
 (let ((?x48102 ((_ extract 31 31) syscall_stub_ioctl_94_32)))
 (= (_ bv0 1) ?x48102)))
(assert
 (let (($x3051 (= (_ bv0 32) syscall_stub_ioctl_94_32)))
 (not $x3051)))
(assert
 (let ((?x52872 ((_ extract 31 0) syscall_stub_newfstatat_119_64)))
 (= (_ bv4294967262 32) ?x52872)))
(assert
 (let ((?x482838 ((_ extract 31 31) syscall_stub_ioctl_2141_32)))
 (= (_ bv0 1) ?x482838)))
(assert
 (let (($x478813 (= (_ bv0 32) syscall_stub_ioctl_2141_32)))
 (not $x478813)))
(assert
 (let ((?x486350 ((_ extract 31 0) syscall_stub_newfstatat_2984_64)))
 (bvule ?x486350 (_ bv4294963200 32))))
(assert
 (= (_ bv17870283321406196703 64) syscall_stub_readlink_3209_64))
(assert
 (let ((?x568088 (bvadd (_ bv576460752303354917 64) strlen_4688_64)))
 (let ((?x730679 ((_ extract 3167 3160) mem_7fffffffffef42d_3396_3576)))
 (let (($x1243322 (= (_ bv0 8) ?x730679)))
 (let ((?x1242794 (ite $x1243322 (_ bv576460752303354976 64) (_ bv0 64))))
 (let ((?x718243 ((_ extract 3175 3168) mem_7fffffffffef42d_3396_3576)))
 (let (($x1242793 (= (_ bv0 8) ?x718243)))
 (let ((?x1242795 (ite $x1242793 (_ bv576460752303354975 64) ?x1242794)))
 (let ((?x727495 ((_ extract 3183 3176) mem_7fffffffffef42d_3396_3576)))
 (let (($x1243321 (= (_ bv0 8) ?x727495)))
 (let ((?x1243325 (ite $x1243321 (_ bv576460752303354974 64) ?x1242795)))
 (let ((?x718621 ((_ extract 3191 3184) mem_7fffffffffef42d_3396_3576)))
 (let (($x1242792 (= (_ bv0 8) ?x718621)))
 (let ((?x1243324 (ite $x1242792 (_ bv576460752303354973 64) ?x1243325)))
 (let ((?x723060 ((_ extract 3199 3192) mem_7fffffffffef42d_3396_3576)))
 (let (($x1243320 (= (_ bv0 8) ?x723060)))
 (let ((?x1243326 (ite $x1243320 (_ bv576460752303354972 64) ?x1243324)))
 (let ((?x719157 ((_ extract 3207 3200) mem_7fffffffffef42d_3396_3576)))
 (let (($x1242791 (= (_ bv0 8) ?x719157)))
 (let ((?x1242798 (ite $x1242791 (_ bv576460752303354971 64) ?x1243326)))
 (let ((?x676000 ((_ extract 3215 3208) mem_7fffffffffef42d_3396_3576)))
 (let (($x1243319 (= (_ bv0 8) ?x676000)))
 (let ((?x1243327 (ite $x1243319 (_ bv576460752303354970 64) ?x1242798)))
 (let ((?x671675 ((_ extract 3223 3216) mem_7fffffffffef42d_3396_3576)))
 (let (($x1242790 (= (_ bv0 8) ?x671675)))
 (let ((?x1242799 (ite $x1242790 (_ bv576460752303354969 64) ?x1243327)))
 (let ((?x683892 ((_ extract 3231 3224) mem_7fffffffffef42d_3396_3576)))
 (let (($x1243318 (= (_ bv0 8) ?x683892)))
 (let ((?x1243328 (ite $x1243318 (_ bv576460752303354968 64) ?x1242799)))
 (let ((?x683901 ((_ extract 3239 3232) mem_7fffffffffef42d_3396_3576)))
 (let (($x1242789 (= (_ bv0 8) ?x683901)))
 (let ((?x1242800 (ite $x1242789 (_ bv576460752303354967 64) ?x1243328)))
 (let ((?x712860 ((_ extract 3247 3240) mem_7fffffffffef42d_3396_3576)))
 (let (($x1243317 (= (_ bv0 8) ?x712860)))
 (let ((?x1243329 (ite $x1243317 (_ bv576460752303354966 64) ?x1242800)))
 (let ((?x718552 ((_ extract 3255 3248) mem_7fffffffffef42d_3396_3576)))
 (let (($x1242788 (= (_ bv0 8) ?x718552)))
 (let ((?x1242801 (ite $x1242788 (_ bv576460752303354965 64) ?x1243329)))
 (let ((?x712600 ((_ extract 3263 3256) mem_7fffffffffef42d_3396_3576)))
 (let (($x1243316 (= (_ bv0 8) ?x712600)))
 (let ((?x1243330 (ite $x1243316 (_ bv576460752303354964 64) ?x1242801)))
 (let ((?x729635 ((_ extract 3271 3264) mem_7fffffffffef42d_3396_3576)))
 (let (($x1243315 (= (_ bv0 8) ?x729635)))
 (let ((?x1242802 (ite $x1243315 (_ bv576460752303354963 64) ?x1243330)))
 (let ((?x682070 ((_ extract 3279 3272) mem_7fffffffffef42d_3396_3576)))
 (let (($x1243314 (= (_ bv0 8) ?x682070)))
 (let ((?x1243331 (ite $x1243314 (_ bv576460752303354962 64) ?x1242802)))
 (let ((?x688466 ((_ extract 3287 3280) mem_7fffffffffef42d_3396_3576)))
 (let (($x1242785 (= (_ bv0 8) ?x688466)))
 (let ((?x1242803 (ite $x1242785 (_ bv576460752303354961 64) ?x1243331)))
 (let ((?x671739 ((_ extract 3295 3288) mem_7fffffffffef42d_3396_3576)))
 (let (($x1243313 (= (_ bv0 8) ?x671739)))
 (let ((?x1243332 (ite $x1243313 (_ bv576460752303354960 64) ?x1242803)))
 (let ((?x666444 ((_ extract 3303 3296) mem_7fffffffffef42d_3396_3576)))
 (let (($x1242784 (= (_ bv0 8) ?x666444)))
 (let ((?x1242804 (ite $x1242784 (_ bv576460752303354959 64) ?x1243332)))
 (let ((?x675227 ((_ extract 3311 3304) mem_7fffffffffef42d_3396_3576)))
 (let (($x1243312 (= (_ bv0 8) ?x675227)))
 (let ((?x1243333 (ite $x1243312 (_ bv576460752303354958 64) ?x1242804)))
 (let ((?x678097 ((_ extract 3319 3312) mem_7fffffffffef42d_3396_3576)))
 (let (($x1242783 (= (_ bv0 8) ?x678097)))
 (let ((?x1242805 (ite $x1242783 (_ bv576460752303354957 64) ?x1243333)))
 (let ((?x673851 ((_ extract 3327 3320) mem_7fffffffffef42d_3396_3576)))
 (let (($x1243311 (= (_ bv0 8) ?x673851)))
 (let ((?x1243334 (ite $x1243311 (_ bv576460752303354956 64) ?x1242805)))
 (let ((?x678680 ((_ extract 3335 3328) mem_7fffffffffef42d_3396_3576)))
 (let (($x1242782 (= (_ bv0 8) ?x678680)))
 (let ((?x1243335 (ite $x1242782 (_ bv576460752303354955 64) ?x1243334)))
 (let ((?x689738 ((_ extract 3343 3336) mem_7fffffffffef42d_3396_3576)))
 (let (($x1243310 (= (_ bv0 8) ?x689738)))
 (let ((?x1243336 (ite $x1243310 (_ bv576460752303354954 64) ?x1243335)))
 (let ((?x681861 ((_ extract 3351 3344) mem_7fffffffffef42d_3396_3576)))
 (let (($x1242781 (= (_ bv0 8) ?x681861)))
 (let ((?x1242808 (ite $x1242781 (_ bv576460752303354953 64) ?x1243336)))
 (let ((?x667310 ((_ extract 3359 3352) mem_7fffffffffef42d_3396_3576)))
 (let (($x1243309 (= (_ bv0 8) ?x667310)))
 (let ((?x1243337 (ite $x1243309 (_ bv576460752303354952 64) ?x1242808)))
 (let ((?x672799 ((_ extract 3367 3360) mem_7fffffffffef42d_3396_3576)))
 (let (($x1242780 (= (_ bv0 8) ?x672799)))
 (let ((?x1242809 (ite $x1242780 (_ bv576460752303354951 64) ?x1243337)))
 (let ((?x684902 ((_ extract 3375 3368) mem_7fffffffffef42d_3396_3576)))
 (let (($x1243308 (= (_ bv0 8) ?x684902)))
 (let ((?x1243338 (ite $x1243308 (_ bv576460752303354950 64) ?x1242809)))
 (let ((?x689445 ((_ extract 3383 3376) mem_7fffffffffef42d_3396_3576)))
 (let (($x1242779 (= (_ bv0 8) ?x689445)))
 (let ((?x1242810 (ite $x1242779 (_ bv576460752303354949 64) ?x1243338)))
 (let ((?x677959 ((_ extract 3391 3384) mem_7fffffffffef42d_3396_3576)))
 (let (($x1243307 (= (_ bv0 8) ?x677959)))
 (let ((?x1243339 (ite $x1243307 (_ bv576460752303354948 64) ?x1242810)))
 (let ((?x675323 ((_ extract 3399 3392) mem_7fffffffffef42d_3396_3576)))
 (let (($x1242778 (= (_ bv0 8) ?x675323)))
 (let ((?x1242811 (ite $x1242778 (_ bv576460752303354947 64) ?x1243339)))
 (let ((?x1243306 ((_ extract 3407 3400) mem_7fffffffffef42d_3396_3576)))
 (let (($x1243305 (= (_ bv0 8) ?x1243306)))
 (let ((?x1243340 (ite $x1243305 (_ bv576460752303354946 64) ?x1242811)))
 (let ((?x1243304 ((_ extract 3415 3408) mem_7fffffffffef42d_3396_3576)))
 (let (($x1242775 (= (_ bv0 8) ?x1243304)))
 (let ((?x1242812 (ite $x1242775 (_ bv576460752303354945 64) ?x1243340)))
 (let ((?x1243303 ((_ extract 3423 3416) mem_7fffffffffef42d_3396_3576)))
 (let (($x1242774 (= (_ bv0 8) ?x1243303)))
 (let ((?x1243341 (ite $x1242774 (_ bv576460752303354944 64) ?x1242812)))
 (let ((?x1243302 ((_ extract 3431 3424) mem_7fffffffffef42d_3396_3576)))
 (let (($x1242773 (= (_ bv0 8) ?x1243302)))
 (let ((?x1242813 (ite $x1242773 (_ bv576460752303354943 64) ?x1243341)))
 (let ((?x1243301 ((_ extract 3439 3432) mem_7fffffffffef42d_3396_3576)))
 (let (($x1242772 (= (_ bv0 8) ?x1243301)))
 (let ((?x1243342 (ite $x1242772 (_ bv576460752303354942 64) ?x1242813)))
 (let ((?x1242771 ((_ extract 3447 3440) mem_7fffffffffef42d_3396_3576)))
 (let (($x1243299 (= (_ bv0 8) ?x1242771)))
 (let ((?x1242814 (ite $x1243299 (_ bv576460752303354941 64) ?x1243342)))
 (let ((?x1242770 ((_ extract 3455 3448) mem_7fffffffffef42d_3396_3576)))
 (let (($x1243298 (= (_ bv0 8) ?x1242770)))
 (let ((?x1243343 (ite $x1243298 (_ bv576460752303354940 64) ?x1242814)))
 (let ((?x1242769 ((_ extract 3463 3456) mem_7fffffffffef42d_3396_3576)))
 (let (($x1243297 (= (_ bv0 8) ?x1242769)))
 (let ((?x1242815 (ite $x1243297 (_ bv576460752303354939 64) ?x1243343)))
 (let ((?x1242768 ((_ extract 3471 3464) mem_7fffffffffef42d_3396_3576)))
 (let (($x1243296 (= (_ bv0 8) ?x1242768)))
 (let ((?x1243344 (ite $x1243296 (_ bv576460752303354938 64) ?x1242815)))
 (let ((?x1243295 ((_ extract 3479 3472) mem_7fffffffffef42d_3396_3576)))
 (let (($x1243294 (= (_ bv0 8) ?x1243295)))
 (let ((?x1243345 (ite $x1243294 (_ bv576460752303354937 64) ?x1243344)))
 (let ((?x1242765 ((_ extract 3487 3480) mem_7fffffffffef42d_3396_3576)))
 (let (($x1243293 (= (_ bv0 8) ?x1242765)))
 (let ((?x1243346 (ite $x1243293 (_ bv576460752303354936 64) ?x1243345)))
 (let ((?x1242764 ((_ extract 3495 3488) mem_7fffffffffef42d_3396_3576)))
 (let (($x1243292 (= (_ bv0 8) ?x1242764)))
 (let ((?x1242818 (ite $x1243292 (_ bv576460752303354935 64) ?x1243346)))
 (let ((?x1242763 ((_ extract 3503 3496) mem_7fffffffffef42d_3396_3576)))
 (let (($x1243291 (= (_ bv0 8) ?x1242763)))
 (let ((?x1243347 (ite $x1243291 (_ bv576460752303354934 64) ?x1242818)))
 (let ((?x1242762 ((_ extract 3511 3504) mem_7fffffffffef42d_3396_3576)))
 (let (($x1243290 (= (_ bv0 8) ?x1242762)))
 (let ((?x1242819 (ite $x1243290 (_ bv576460752303354933 64) ?x1243347)))
 (let ((?x1242761 ((_ extract 3519 3512) mem_7fffffffffef42d_3396_3576)))
 (let (($x1243289 (= (_ bv0 8) ?x1242761)))
 (let ((?x1243348 (ite $x1243289 (_ bv576460752303354932 64) ?x1242819)))
 (let ((?x1242760 ((_ extract 3527 3520) mem_7fffffffffef42d_3396_3576)))
 (let (($x1243288 (= (_ bv0 8) ?x1242760)))
 (let ((?x1242820 (ite $x1243288 (_ bv576460752303354931 64) ?x1243348)))
 (let ((?x568073 ((_ extract 3535 3528) mem_7fffffffffef42d_3396_3576)))
 (let (($x550909 (= (_ bv0 8) ?x568073)))
 (let ((?x1243349 (ite $x550909 (_ bv576460752303354930 64) ?x1242820)))
 (let ((?x667075 ((_ extract 3543 3536) mem_7fffffffffef42d_3396_3576)))
 (let (($x568119 (= (_ bv0 8) ?x667075)))
 (let ((?x1242821 (ite $x568119 (_ bv576460752303354929 64) ?x1243349)))
 (let ((?x667286 ((_ extract 3551 3544) mem_7fffffffffef42d_3396_3576)))
 (let (($x567898 (= (_ bv0 8) ?x667286)))
 (let ((?x1243350 (ite $x567898 (_ bv576460752303354928 64) ?x1242821)))
 (let ((?x683347 ((_ extract 3559 3552) mem_7fffffffffef42d_3396_3576)))
 (let (($x568041 (= (_ bv0 8) ?x683347)))
 (let ((?x1242822 (ite $x568041 (_ bv576460752303354927 64) ?x1243350)))
 (let ((?x682518 ((_ extract 3567 3560) mem_7fffffffffef42d_3396_3576)))
 (let (($x481485 (= (_ bv0 8) ?x682518)))
 (let ((?x1243351 (ite $x481485 (_ bv576460752303354926 64) ?x1242822)))
 (let ((?x666336 ((_ extract 3575 3568) mem_7fffffffffef42d_3396_3576)))
 (let (($x479580 (= (_ bv0 8) ?x666336)))
 (let ((?x1242823 (ite $x479580 (_ bv576460752303354925 64) ?x1243351)))
 (let (($x1243287 (= (_ bv0 8) mem_7fffffffffef42c_3322_8)))
 (let ((?x1243352 (ite $x1243287 (_ bv576460752303354924 64) ?x1242823)))
 (let ((?x645539 ((_ extract 31 24) mem_7fffffffffef428_3312_32)))
 (let (($x1242758 (= (_ bv0 8) ?x645539)))
 (let ((?x1242824 (ite $x1242758 (_ bv576460752303354923 64) ?x1243352)))
 (let ((?x645536 ((_ extract 23 16) mem_7fffffffffef428_3312_32)))
 (let (($x1243285 (= (_ bv0 8) ?x645536)))
 (let ((?x1243353 (ite $x1243285 (_ bv576460752303354922 64) ?x1242824)))
 (let ((?x645535 ((_ extract 15 8) mem_7fffffffffef428_3312_32)))
 (let (($x1243284 (= (_ bv0 8) ?x645535)))
 (let ((?x1242825 (ite $x1243284 (_ bv576460752303354921 64) ?x1243353)))
 (let ((?x645534 ((_ extract 7 0) mem_7fffffffffef428_3312_32)))
 (let (($x1242754 (= (_ bv0 8) ?x645534)))
 (let ((?x1243354 (ite $x1242754 (_ bv576460752303354920 64) ?x1242825)))
 (let ((?x562741 ((_ extract 63 56) mem_7fffffffffef420_3302_64)))
 (let (($x1226288 (= (_ bv0 8) ?x562741)))
 (let ((?x1243355 (ite $x1226288 (_ bv576460752303354919 64) ?x1243354)))
 (let ((?x562745 ((_ extract 55 48) mem_7fffffffffef420_3302_64)))
 (let (($x1226403 (= (_ bv0 8) ?x562745)))
 (let ((?x1243356 (ite $x1226403 (_ bv576460752303354918 64) ?x1243355)))
 (let ((?x562740 ((_ extract 47 40) mem_7fffffffffef420_3302_64)))
 (let (($x1226297 (= (_ bv0 8) ?x562740)))
 (let ((?x1243357 (ite $x1226297 (_ bv576460752303354917 64) ?x1243356)))
 (= ?x1243357 ?x568088))))))))))))))))))))))))))))))))))))))))))))))))))))))))))))))))))))))))))))))))))))))))))))))))))))))))))))))))))))))))))))))))))))))))))))))))))))))))))))))))))))))))))))))))))))))
(assert
 (let ((?x551403 ((_ extract 7 0) mem_7fffffffffef420_3302_64)))
 (= (_ bv47 8) ?x551403)))
(assert
 (let ((?x1248580 ((_ extract 5 0) strlen_4688_64)))
 (let ((?x1248622 (bvadd (_ bv1 6) ?x1248580)))
 (let (($x1248179 (bvule (_ bv31 64) strlen_4688_64)))
 (let (($x1248176 (bvule strlen_4688_64 (_ bv18446744073709551614 64))))
 (let (($x1248598 (and $x1248176 $x1248179)))
 (let ((?x1248600 (ite $x1248598 (_ bv32 6) ?x1248622)))
 (bvule ?x1248600 (_ bv32 6)))))))))
(assert
 (let ((?x1248024 (bvadd (_ bv1 64) strlen_4688_64)))
 (let (($x1248179 (bvule (_ bv31 64) strlen_4688_64)))
 (let (($x1248176 (bvule strlen_4688_64 (_ bv18446744073709551614 64))))
 (let (($x1248598 (and $x1248176 $x1248179)))
 (let ((?x1248406 (ite $x1248598 (_ bv32 64) ?x1248024)))
 (bvule (_ bv1 64) ?x1248406)))))))
(assert
 (let ((?x562740 ((_ extract 47 40) mem_7fffffffffef420_3302_64)))
 (let (($x1226297 (= (_ bv0 8) ?x562740)))
 (let ((?x562741 ((_ extract 63 56) mem_7fffffffffef420_3302_64)))
 (let (($x1226288 (= (_ bv0 8) ?x562741)))
 (let ((?x562745 ((_ extract 55 48) mem_7fffffffffef420_3302_64)))
 (let (($x1226403 (= (_ bv0 8) ?x562745)))
 (let ((?x645535 ((_ extract 15 8) mem_7fffffffffef428_3312_32)))
 (let (($x1243284 (= (_ bv0 8) ?x645535)))
 (let ((?x645536 ((_ extract 23 16) mem_7fffffffffef428_3312_32)))
 (let (($x1243285 (= (_ bv0 8) ?x645536)))
 (let (($x1243287 (= (_ bv0 8) mem_7fffffffffef42c_3322_8)))
 (let ((?x682518 ((_ extract 3567 3560) mem_7fffffffffef42d_3396_3576)))
 (let (($x481485 (= (_ bv0 8) ?x682518)))
 (let ((?x667286 ((_ extract 3551 3544) mem_7fffffffffef42d_3396_3576)))
 (let (($x567898 (= (_ bv0 8) ?x667286)))
 (let ((?x568073 ((_ extract 3535 3528) mem_7fffffffffef42d_3396_3576)))
 (let (($x550909 (= (_ bv0 8) ?x568073)))
 (let ((?x1242763 ((_ extract 3503 3496) mem_7fffffffffef42d_3396_3576)))
 (let (($x1243291 (= (_ bv0 8) ?x1242763)))
 (let ((?x1242765 ((_ extract 3487 3480) mem_7fffffffffef42d_3396_3576)))
 (let (($x1243293 (= (_ bv0 8) ?x1242765)))
 (let ((?x1242768 ((_ extract 3471 3464) mem_7fffffffffef42d_3396_3576)))
 (let (($x1243296 (= (_ bv0 8) ?x1242768)))
 (let ((?x1242770 ((_ extract 3455 3448) mem_7fffffffffef42d_3396_3576)))
 (let (($x1243298 (= (_ bv0 8) ?x1242770)))
 (let ((?x1243301 ((_ extract 3439 3432) mem_7fffffffffef42d_3396_3576)))
 (let (($x1242772 (= (_ bv0 8) ?x1243301)))
 (let ((?x1243303 ((_ extract 3423 3416) mem_7fffffffffef42d_3396_3576)))
 (let (($x1242774 (= (_ bv0 8) ?x1243303)))
 (let ((?x1243306 ((_ extract 3407 3400) mem_7fffffffffef42d_3396_3576)))
 (let (($x1243305 (= (_ bv0 8) ?x1243306)))
 (let ((?x677959 ((_ extract 3391 3384) mem_7fffffffffef42d_3396_3576)))
 (let (($x1243307 (= (_ bv0 8) ?x677959)))
 (let ((?x667310 ((_ extract 3359 3352) mem_7fffffffffef42d_3396_3576)))
 (let (($x1243309 (= (_ bv0 8) ?x667310)))
 (let ((?x689738 ((_ extract 3343 3336) mem_7fffffffffef42d_3396_3576)))
 (let (($x1243310 (= (_ bv0 8) ?x689738)))
 (let ((?x673851 ((_ extract 3327 3320) mem_7fffffffffef42d_3396_3576)))
 (let (($x1243311 (= (_ bv0 8) ?x673851)))
 (let ((?x675227 ((_ extract 3311 3304) mem_7fffffffffef42d_3396_3576)))
 (let (($x1243312 (= (_ bv0 8) ?x675227)))
 (let ((?x671739 ((_ extract 3295 3288) mem_7fffffffffef42d_3396_3576)))
 (let (($x1243313 (= (_ bv0 8) ?x671739)))
 (let ((?x682070 ((_ extract 3279 3272) mem_7fffffffffef42d_3396_3576)))
 (let (($x1243314 (= (_ bv0 8) ?x682070)))
 (let ((?x712600 ((_ extract 3263 3256) mem_7fffffffffef42d_3396_3576)))
 (let (($x1243316 (= (_ bv0 8) ?x712600)))
 (let ((?x712860 ((_ extract 3247 3240) mem_7fffffffffef42d_3396_3576)))
 (let (($x1243317 (= (_ bv0 8) ?x712860)))
 (let ((?x676000 ((_ extract 3215 3208) mem_7fffffffffef42d_3396_3576)))
 (let (($x1243319 (= (_ bv0 8) ?x676000)))
 (let ((?x723060 ((_ extract 3199 3192) mem_7fffffffffef42d_3396_3576)))
 (let (($x1243320 (= (_ bv0 8) ?x723060)))
 (let ((?x727495 ((_ extract 3183 3176) mem_7fffffffffef42d_3396_3576)))
 (let (($x1243321 (= (_ bv0 8) ?x727495)))
 (let ((?x730679 ((_ extract 3167 3160) mem_7fffffffffef42d_3396_3576)))
 (let (($x1243322 (= (_ bv0 8) ?x730679)))
 (let ((?x645539 ((_ extract 31 24) mem_7fffffffffef428_3312_32)))
 (let (($x1242758 (= (_ bv0 8) ?x645539)))
 (let ((?x666336 ((_ extract 3575 3568) mem_7fffffffffef42d_3396_3576)))
 (let (($x479580 (= (_ bv0 8) ?x666336)))
 (let ((?x683347 ((_ extract 3559 3552) mem_7fffffffffef42d_3396_3576)))
 (let (($x568041 (= (_ bv0 8) ?x683347)))
 (let ((?x667075 ((_ extract 3543 3536) mem_7fffffffffef42d_3396_3576)))
 (let (($x568119 (= (_ bv0 8) ?x667075)))
 (let ((?x1242760 ((_ extract 3527 3520) mem_7fffffffffef42d_3396_3576)))
 (let (($x1243288 (= (_ bv0 8) ?x1242760)))
 (let ((?x1242761 ((_ extract 3519 3512) mem_7fffffffffef42d_3396_3576)))
 (let (($x1243289 (= (_ bv0 8) ?x1242761)))
 (let ((?x1242762 ((_ extract 3511 3504) mem_7fffffffffef42d_3396_3576)))
 (let (($x1243290 (= (_ bv0 8) ?x1242762)))
 (let ((?x1242764 ((_ extract 3495 3488) mem_7fffffffffef42d_3396_3576)))
 (let (($x1243292 (= (_ bv0 8) ?x1242764)))
 (let ((?x1243295 ((_ extract 3479 3472) mem_7fffffffffef42d_3396_3576)))
 (let (($x1243294 (= (_ bv0 8) ?x1243295)))
 (let ((?x1242769 ((_ extract 3463 3456) mem_7fffffffffef42d_3396_3576)))
 (let (($x1243297 (= (_ bv0 8) ?x1242769)))
 (let ((?x1242771 ((_ extract 3447 3440) mem_7fffffffffef42d_3396_3576)))
 (let (($x1243299 (= (_ bv0 8) ?x1242771)))
 (let ((?x1243302 ((_ extract 3431 3424) mem_7fffffffffef42d_3396_3576)))
 (let (($x1242773 (= (_ bv0 8) ?x1243302)))
 (let ((?x1243304 ((_ extract 3415 3408) mem_7fffffffffef42d_3396_3576)))
 (let (($x1242775 (= (_ bv0 8) ?x1243304)))
 (let ((?x675323 ((_ extract 3399 3392) mem_7fffffffffef42d_3396_3576)))
 (let (($x1242778 (= (_ bv0 8) ?x675323)))
 (let ((?x689445 ((_ extract 3383 3376) mem_7fffffffffef42d_3396_3576)))
 (let (($x1242779 (= (_ bv0 8) ?x689445)))
 (let ((?x684902 ((_ extract 3375 3368) mem_7fffffffffef42d_3396_3576)))
 (let (($x1243308 (= (_ bv0 8) ?x684902)))
 (let ((?x672799 ((_ extract 3367 3360) mem_7fffffffffef42d_3396_3576)))
 (let (($x1242780 (= (_ bv0 8) ?x672799)))
 (let ((?x681861 ((_ extract 3351 3344) mem_7fffffffffef42d_3396_3576)))
 (let (($x1242781 (= (_ bv0 8) ?x681861)))
 (let ((?x678680 ((_ extract 3335 3328) mem_7fffffffffef42d_3396_3576)))
 (let (($x1242782 (= (_ bv0 8) ?x678680)))
 (let ((?x678097 ((_ extract 3319 3312) mem_7fffffffffef42d_3396_3576)))
 (let (($x1242783 (= (_ bv0 8) ?x678097)))
 (let ((?x666444 ((_ extract 3303 3296) mem_7fffffffffef42d_3396_3576)))
 (let (($x1242784 (= (_ bv0 8) ?x666444)))
 (let ((?x688466 ((_ extract 3287 3280) mem_7fffffffffef42d_3396_3576)))
 (let (($x1242785 (= (_ bv0 8) ?x688466)))
 (let ((?x729635 ((_ extract 3271 3264) mem_7fffffffffef42d_3396_3576)))
 (let (($x1243315 (= (_ bv0 8) ?x729635)))
 (let ((?x718552 ((_ extract 3255 3248) mem_7fffffffffef42d_3396_3576)))
 (let (($x1242788 (= (_ bv0 8) ?x718552)))
 (let ((?x683901 ((_ extract 3239 3232) mem_7fffffffffef42d_3396_3576)))
 (let (($x1242789 (= (_ bv0 8) ?x683901)))
 (let ((?x683892 ((_ extract 3231 3224) mem_7fffffffffef42d_3396_3576)))
 (let (($x1243318 (= (_ bv0 8) ?x683892)))
 (let ((?x671675 ((_ extract 3223 3216) mem_7fffffffffef42d_3396_3576)))
 (let (($x1242790 (= (_ bv0 8) ?x671675)))
 (let ((?x719157 ((_ extract 3207 3200) mem_7fffffffffef42d_3396_3576)))
 (let (($x1242791 (= (_ bv0 8) ?x719157)))
 (let ((?x718621 ((_ extract 3191 3184) mem_7fffffffffef42d_3396_3576)))
 (let (($x1242792 (= (_ bv0 8) ?x718621)))
 (let ((?x718243 ((_ extract 3175 3168) mem_7fffffffffef42d_3396_3576)))
 (let (($x1242793 (= (_ bv0 8) ?x718243)))
 (let ((?x645534 ((_ extract 7 0) mem_7fffffffffef428_3312_32)))
 (let (($x1242754 (= (_ bv0 8) ?x645534)))
 (or $x1242754 $x1242793 $x1242792 $x1242791 $x1242790 $x1243318 $x1242789 $x1242788 $x1243315 $x1242785 $x1242784 $x1242783 $x1242782 $x1242781 $x1242780 $x1243308 $x1242779 $x1242778 $x1242775 $x1242773 $x1243299 $x1243297 $x1243294 $x1243292 $x1243290 $x1243289 $x1243288 $x568119 $x568041 $x479580 $x1242758 $x1243322 $x1243321 $x1243320 $x1243319 $x1243317 $x1243316 $x1243314 $x1243313 $x1243312 $x1243311 $x1243310 $x1243309 $x1243307 $x1243305 $x1242774 $x1242772 $x1243298 $x1243296 $x1243293 $x1243291 $x550909 $x567898 $x481485 $x1243287 $x1243285 $x1243284 $x1226403 $x1226288 $x1226297)))))))))))))))))))))))))))))))))))))))))))))))))))))))))))))))))))))))))))))))))))))))))))))))))))))))))))))))))))))))))
(assert
 (let (($x1248179 (bvule (_ bv31 64) strlen_4688_64)))
 (let (($x1248193 (not $x1248179)))
 (let (($x1248176 (bvule strlen_4688_64 (_ bv18446744073709551614 64))))
 (let (($x1248186 (not $x1248176)))
 (let (($x1248194 (or $x1248186 $x1248193)))
 (let (($x1248519 (not $x1248194)))
 (let ((?x1248024 (bvadd (_ bv1 64) strlen_4688_64)))
 (let ((?x1248539 ((_ extract 63 6) ?x1248024)))
 (let (($x1251322 (= (_ bv0 58) ?x1248539)))
 (or $x1251322 $x1248519)))))))))))
(assert
 (let ((?x567950 ((_ extract 31 0) syscall_stub_newfstatat_3419_64)))
 (bvule ?x567950 (_ bv4294963200 32))))
(assert
 (= mem_7fffffffffeefa8_3578_64 mem_7fffffffffef038_3573_64))
(assert
 (= mem_7fffffffffef030_3604_64 mem_7fffffffffeefa0_3607_64))
(assert
 (let ((?x479996 ((_ extract 15 12) mem_7fffffffffef048_3666_32)))
 (= (_ bv2 4) ?x479996)))
(assert
 (= mem_7fffffffffef058_3742_64 mem_7fffffffffeefc8_3753_64))
(assert
 (let (($x1376022 (= (_ bv4294967295 32) access_7139_32)))
 (let (($x1376919 (= (_ bv0 32) access_7139_32)))
 (or $x1376919 $x1376022))))
(assert
 (= (_ bv0 32) access_7139_32))
(minimize strncmp_ret_86_32)
(minimize strlen_85_64)
(maximize mem_7fffffffffef030_3604_64)
(maximize strncmp_ret_84_32)
(minimize mem_7fffffffffeefa0_3607_64)
(minimize strncmp_ret_84_32)
(maximize mem_7fffffffffef428_3312_32)
(minimize strlen_83_64)
(maximize syscall_stub_newfstatat_3419_64)
(maximize syscall_stub_newfstatat_2984_64)
(minimize mem_7fffffffffef048_3666_32)
(minimize mem_7fffffffffef428_3312_32)
(maximize strlen_4688_64)
(maximize access_7139_32)
(minimize syscall_stub_ioctl_2141_32)
(maximize mem_7fffffffffef420_3302_64)
(maximize syscall_stub_ioctl_2141_32)
(minimize mem_7fffffffffef038_3573_64)
(maximize strncmp_ret_86_32)
(minimize mem_7fffffffffeefc8_3753_64)
(maximize strlen_85_64)
(minimize mem_7fffffffffef030_3604_64)
(maximize mem_7fffffffffef42d_3396_3576)
(minimize syscall_stub_newfstatat_2984_64)
(minimize syscall_stub_newfstatat_119_64)
(maximize mem_7fffffffffeefc8_3753_64)
(minimize mem_7fffffffffef058_3742_64)
(minimize syscall_stub_ioctl_94_32)
(minimize strlen_4688_64)
(minimize args_1_8)
(maximize args_1_8)
(minimize filesize_file_0_/proc/self/loginuid_88_64)
(minimize syscall_stub_readlink_3209_64)
(maximize mem_7fffffffffeefa8_3578_64)
(maximize filesize_file_0_/proc/self/loginuid_88_64)
(maximize strlen_83_64)
(minimize mem_7fffffffffeefa8_3578_64)
(maximize syscall_stub_ioctl_94_32)
(maximize mem_7fffffffffef038_3573_64)
(maximize mem_7fffffffffef42c_3322_8)
(minimize syscall_stub_newfstatat_3419_64)
(maximize mem_7fffffffffef048_3666_32)
(maximize syscall_stub_readlink_3209_64)
(maximize syscall_stub_newfstatat_119_64)
(maximize mem_7fffffffffef058_3742_64)
(maximize mem_7fffffffffeefa0_3607_64)
(check-sat)
(get-objectives)
